100
32
16
1
13
2
28
14
14
9
30
5
21
19
7
10
6
18
3
15
4
29
27
20
3
22
3
18
3
4
19
14
5
18
7
16
19
5
16
3
1
4
12
17
5
4
4
14
2
1
17
4
10
1
4
1
5
18
2
1
3
6
2
21
19
3
1
4
18
1
20
19
5
12
2
3
2
19
9
1
2
3
3
2
2
18
3
5
18
12
12
2
1
20
1
6
1
7
22
3
3
1